\* NonParametric *\
Minimize
OBJ: 0.0190476190476 l_0 + 0.0190476190476 l_1 + 0.0190476190476 l_10
 + 0.0190476190476 l_11 + 0.0190476190476 l_12 + 0.0190476190476 l_13
 + 0.0190476190476 l_14 + 0.0190476190476 l_15 + 0.0190476190476 l_16
 + 0.0190476190476 l_17 + 0.0190476190476 l_18 + 0.0190476190476 l_19
 + 0.0190476190476 l_2 + 0.0190476190476 l_20 + 0.0190476190476 l_21
 + 0.0190476190476 l_22 + 0.0190476190476 l_23 + 0.0190476190476 l_24
 + 0.0190476190476 l_25 + 0.0190476190476 l_26 + 0.0190476190476 l_27
 + 0.0190476190476 l_28 + 0.0190476190476 l_29 + 0.0190476190476 l_3
 + 0.0190476190476 l_30 + 0.0190476190476 l_31 + 0.0190476190476 l_32
 + 0.0190476190476 l_33 + 0.0190476190476 l_34 + 0.0190476190476 l_35
 + 0.0190476190476 l_36 + 0.0190476190476 l_37 + 0.0190476190476 l_38
 + 0.0190476190476 l_39 + 0.0190476190476 l_4 + 0.0190476190476 l_40
 + 0.0190476190476 l_41 + 0.0190476190476 l_42 + 0.0190476190476 l_43
 + 0.0190476190476 l_44 + 0.0190476190476 l_45 + 0.0190476190476 l_46
 + 0.0190476190476 l_47 + 0.0190476190476 l_48 + 0.0190476190476 l_49
 + 0.0190476190476 l_5 + 0.0190476190476 l_50 + 0.0190476190476 l_51
 + 0.0190476190476 l_52 + 0.0190476190476 l_53 + 0.0190476190476 l_54
 + 0.0190476190476 l_55 + 0.0190476190476 l_56 + 0.0190476190476 l_57
 + 0.0190476190476 l_58 + 0.0190476190476 l_59 + 0.0190476190476 l_6
 + 0.0190476190476 l_60 + 0.0190476190476 l_61 + 0.0190476190476 l_62
 + 0.0190476190476 l_7 + 0.0190476190476 l_8 + 0.0190476190476 l_9
 + 0.00396825396825 s_0 + 0.00396825396825 s_1 + 0.00396825396825 s_10
 + 0.00396825396825 s_11 + 0.00396825396825 s_12 + 0.00396825396825 s_13
 + 0.00396825396825 s_14 + 0.00396825396825 s_15 + 0.00396825396825 s_16
 + 0.00396825396825 s_17 + 0.00396825396825 s_18 + 0.00396825396825 s_19
 + 0.00396825396825 s_2 + 0.00396825396825 s_20 + 0.00396825396825 s_21
 + 0.00396825396825 s_22 + 0.00396825396825 s_23 + 0.00396825396825 s_24
 + 0.00396825396825 s_25 + 0.00396825396825 s_26 + 0.00396825396825 s_27
 + 0.00396825396825 s_28 + 0.00396825396825 s_29 + 0.00396825396825 s_3
 + 0.00396825396825 s_30 + 0.00396825396825 s_31 + 0.00396825396825 s_32
 + 0.00396825396825 s_33 + 0.00396825396825 s_34 + 0.00396825396825 s_35
 + 0.00396825396825 s_36 + 0.00396825396825 s_37 + 0.00396825396825 s_38
 + 0.00396825396825 s_39 + 0.00396825396825 s_4 + 0.00396825396825 s_40
 + 0.00396825396825 s_41 + 0.00396825396825 s_42 + 0.00396825396825 s_43
 + 0.00396825396825 s_44 + 0.00396825396825 s_45 + 0.00396825396825 s_46
 + 0.00396825396825 s_47 + 0.00396825396825 s_48 + 0.00396825396825 s_49
 + 0.00396825396825 s_5 + 0.00396825396825 s_50 + 0.00396825396825 s_51
 + 0.00396825396825 s_52 + 0.00396825396825 s_53 + 0.00396825396825 s_54
 + 0.00396825396825 s_55 + 0.00396825396825 s_56 + 0.00396825396825 s_57
 + 0.00396825396825 s_58 + 0.00396825396825 s_59 + 0.00396825396825 s_6
 + 0.00396825396825 s_60 + 0.00396825396825 s_61 + 0.00396825396825 s_62
 + 0.00396825396825 s_7 + 0.00396825396825 s_8 + 0.00396825396825 s_9
Subject To
_C1: l_0 + z >= 1031
_C10: s_4 - z >= -2517
_C100: s_49 - z >= -1859
_C101: l_50 + z >= 1515
_C102: s_50 - z >= -1515
_C103: l_51 + z >= 2103
_C104: s_51 - z >= -2103
_C105: l_52 + z >= 2447
_C106: s_52 - z >= -2447
_C107: l_53 + z >= 2375
_C108: s_53 - z >= -2375
_C109: l_54 + z >= 759
_C11: l_5 + z >= 3283
_C110: s_54 - z >= -759
_C111: l_55 + z >= 1808
_C112: s_55 - z >= -1808
_C113: l_56 + z >= 1209
_C114: s_56 - z >= -1209
_C115: l_57 + z >= 1780
_C116: s_57 - z >= -1780
_C117: l_58 + z >= 2168
_C118: s_58 - z >= -2168
_C119: l_59 + z >= 2889
_C12: s_5 - z >= -3283
_C120: s_59 - z >= -2889
_C121: l_60 + z >= 2118
_C122: s_60 - z >= -2118
_C123: l_61 + z >= 2012
_C124: s_61 - z >= -2012
_C125: l_62 + z >= 3038
_C126: s_62 - z >= -3038
_C13: l_6 + z >= 1848
_C14: s_6 - z >= -1848
_C15: l_7 + z >= 1916
_C16: s_7 - z >= -1916
_C17: l_8 + z >= 2188
_C18: s_8 - z >= -2188
_C19: l_9 + z >= 1489
_C2: s_0 - z >= -1031
_C20: s_9 - z >= -1489
_C21: l_10 + z >= 1613
_C22: s_10 - z >= -1613
_C23: l_11 + z >= 1556
_C24: s_11 - z >= -1556
_C25: l_12 + z >= 2286
_C26: s_12 - z >= -2286
_C27: l_13 + z >= 3251
_C28: s_13 - z >= -3251
_C29: l_14 + z >= 1735
_C3: l_1 + z >= 2969
_C30: s_14 - z >= -1735
_C31: l_15 + z >= 2001
_C32: s_15 - z >= -2001
_C33: l_16 + z >= 2518
_C34: s_16 - z >= -2518
_C35: l_17 + z >= 2097
_C36: s_17 - z >= -2097
_C37: l_18 + z >= 3421
_C38: s_18 - z >= -3421
_C39: l_19 + z >= 1759
_C4: s_1 - z >= -2969
_C40: s_19 - z >= -1759
_C41: l_20 + z >= 1614
_C42: s_20 - z >= -1614
_C43: l_21 + z >= 2924
_C44: s_21 - z >= -2924
_C45: l_22 + z >= 1964
_C46: s_22 - z >= -1964
_C47: l_23 + z >= 1896
_C48: s_23 - z >= -1896
_C49: l_24 + z >= 1187
_C5: l_2 + z >= 2419
_C50: s_24 - z >= -1187
_C51: l_25 + z >= 2283
_C52: s_25 - z >= -2283
_C53: l_26 + z >= 2203
_C54: s_26 - z >= -2203
_C55: l_27 + z >= 2083
_C56: s_27 - z >= -2083
_C57: l_28 + z >= 932
_C58: s_28 - z >= -932
_C59: l_29 + z >= 2241
_C6: s_2 - z >= -2419
_C60: s_29 - z >= -2241
_C61: l_30 + z >= 2528
_C62: s_30 - z >= -2528
_C63: l_31 + z >= 1975
_C64: s_31 - z >= -1975
_C65: l_32 + z >= 2386
_C66: s_32 - z >= -2386
_C67: l_33 + z >= 2500
_C68: s_33 - z >= -2500
_C69: l_34 + z >= 1751
_C7: l_3 + z >= 2525
_C70: s_34 - z >= -1751
_C71: l_35 + z >= 2086
_C72: s_35 - z >= -2086
_C73: l_36 + z >= 1060
_C74: s_36 - z >= -1060
_C75: l_37 + z >= 1797
_C76: s_37 - z >= -1797
_C77: l_38 + z >= 2429
_C78: s_38 - z >= -2429
_C79: l_39 + z >= 1163
_C8: s_3 - z >= -2525
_C80: s_39 - z >= -1163
_C81: l_40 + z >= 1552
_C82: s_40 - z >= -1552
_C83: l_41 + z >= 1904
_C84: s_41 - z >= -1904
_C85: l_42 + z >= 2280
_C86: s_42 - z >= -2280
_C87: l_43 + z >= 2520
_C88: s_43 - z >= -2520
_C89: l_44 + z >= 2112
_C9: l_4 + z >= 2517
_C90: s_44 - z >= -2112
_C91: l_45 + z >= 2292
_C92: s_45 - z >= -2292
_C93: l_46 + z >= 735
_C94: s_46 - z >= -735
_C95: l_47 + z >= 1698
_C96: s_47 - z >= -1698
_C97: l_48 + z >= 1233
_C98: s_48 - z >= -1233
_C99: l_49 + z >= 1859
End
